NAME: ETSP
COMMENT: Generated by write_TSPLIB (R package TSP)
TYPE: TSP
DIMENSION: 400
EDGE_WEIGHT_TYPE: EUC_2D
NODE_COORD_SECTION
1 0.000000e+00 0.000000e+00
2 1.000000e+01 0.000000e+00
3 2.000000e+01 0.000000e+00
4 4.000000e+01 0.000000e+00
5 5.000000e+01 0.000000e+00
6 6.000000e+01 0.000000e+00
7 7.000000e+01 0.000000e+00
8 8.000000e+01 0.000000e+00
9 9.000000e+01 0.000000e+00
10 1.000000e+02 0.000000e+00
11 1.100000e+02 0.000000e+00
12 1.200000e+02 0.000000e+00
13 1.300000e+02 0.000000e+00
14 1.400000e+02 0.000000e+00
15 1.500000e+02 0.000000e+00
16 1.600000e+02 0.000000e+00
17 1.800000e+02 0.000000e+00
18 2.000000e+02 0.000000e+00
19 2.100000e+02 0.000000e+00
20 2.200000e+02 0.000000e+00
21 0.000000e+00 1.000000e+01
22 2.000000e+01 1.000000e+01
23 3.000000e+01 1.000000e+01
24 4.000000e+01 1.000000e+01
25 5.000000e+01 1.000000e+01
26 6.000000e+01 1.000000e+01
27 8.000000e+01 1.000000e+01
28 9.000000e+01 1.000000e+01
29 1.000000e+02 1.000000e+01
30 1.100000e+02 1.000000e+01
31 1.200000e+02 1.000000e+01
32 1.400000e+02 1.000000e+01
33 1.500000e+02 1.000000e+01
34 1.600000e+02 1.000000e+01
35 1.700000e+02 1.000000e+01
36 1.800000e+02 1.000000e+01
37 1.900000e+02 1.000000e+01
38 2.000000e+02 1.000000e+01
39 2.100000e+02 1.000000e+01
40 2.200000e+02 1.000000e+01
41 1.000000e+01 2.000000e+01
42 2.000000e+01 2.000000e+01
43 4.000000e+01 2.000000e+01
44 6.000000e+01 2.000000e+01
45 7.000000e+01 2.000000e+01
46 9.000000e+01 2.000000e+01
47 1.000000e+02 2.000000e+01
48 1.200000e+02 2.000000e+01
49 1.500000e+02 2.000000e+01
50 1.600000e+02 2.000000e+01
51 1.700000e+02 2.000000e+01
52 1.800000e+02 2.000000e+01
53 1.900000e+02 2.000000e+01
54 2.000000e+02 2.000000e+01
55 2.100000e+02 2.000000e+01
56 0.000000e+00 3.000000e+01
57 1.000000e+01 3.000000e+01
58 2.000000e+01 3.000000e+01
59 3.000000e+01 3.000000e+01
60 5.000000e+01 3.000000e+01
61 6.000000e+01 3.000000e+01
62 7.000000e+01 3.000000e+01
63 8.000000e+01 3.000000e+01
64 9.000000e+01 3.000000e+01
65 1.000000e+02 3.000000e+01
66 1.100000e+02 3.000000e+01
67 1.200000e+02 3.000000e+01
68 1.300000e+02 3.000000e+01
69 1.400000e+02 3.000000e+01
70 1.500000e+02 3.000000e+01
71 1.600000e+02 3.000000e+01
72 1.700000e+02 3.000000e+01
73 1.800000e+02 3.000000e+01
74 2.100000e+02 3.000000e+01
75 2.200000e+02 3.000000e+01
76 0.000000e+00 4.000000e+01
77 1.000000e+01 4.000000e+01
78 3.000000e+01 4.000000e+01
79 4.000000e+01 4.000000e+01
80 5.000000e+01 4.000000e+01
81 6.000000e+01 4.000000e+01
82 1.000000e+02 4.000000e+01
83 1.200000e+02 4.000000e+01
84 1.400000e+02 4.000000e+01
85 1.500000e+02 4.000000e+01
86 1.600000e+02 4.000000e+01
87 1.700000e+02 4.000000e+01
88 1.900000e+02 4.000000e+01
89 2.000000e+02 4.000000e+01
90 2.000000e+01 5.000000e+01
91 8.000000e+01 5.000000e+01
92 9.000000e+01 5.000000e+01
93 1.000000e+02 5.000000e+01
94 1.100000e+02 5.000000e+01
95 1.200000e+02 5.000000e+01
96 1.300000e+02 5.000000e+01
97 1.500000e+02 5.000000e+01
98 1.600000e+02 5.000000e+01
99 1.700000e+02 5.000000e+01
100 1.800000e+02 5.000000e+01
101 1.900000e+02 5.000000e+01
102 2.200000e+02 5.000000e+01
103 0.000000e+00 6.000000e+01
104 2.000000e+01 6.000000e+01
105 6.000000e+01 6.000000e+01
106 7.000000e+01 6.000000e+01
107 8.000000e+01 6.000000e+01
108 9.000000e+01 6.000000e+01
109 1.000000e+02 6.000000e+01
110 1.100000e+02 6.000000e+01
111 1.200000e+02 6.000000e+01
112 1.400000e+02 6.000000e+01
113 1.600000e+02 6.000000e+01
114 1.700000e+02 6.000000e+01
115 1.900000e+02 6.000000e+01
116 2.100000e+02 6.000000e+01
117 2.200000e+02 6.000000e+01
118 0.000000e+00 7.000000e+01
119 1.000000e+01 7.000000e+01
120 2.000000e+01 7.000000e+01
121 3.000000e+01 7.000000e+01
122 4.000000e+01 7.000000e+01
123 5.000000e+01 7.000000e+01
124 6.000000e+01 7.000000e+01
125 8.000000e+01 7.000000e+01
126 9.000000e+01 7.000000e+01
127 1.000000e+02 7.000000e+01
128 1.100000e+02 7.000000e+01
129 1.200000e+02 7.000000e+01
130 1.400000e+02 7.000000e+01
131 1.500000e+02 7.000000e+01
132 1.600000e+02 7.000000e+01
133 1.700000e+02 7.000000e+01
134 1.800000e+02 7.000000e+01
135 2.000000e+02 7.000000e+01
136 2.200000e+02 7.000000e+01
137 0.000000e+00 8.000000e+01
138 1.000000e+01 8.000000e+01
139 2.000000e+01 8.000000e+01
140 4.000000e+01 8.000000e+01
141 5.000000e+01 8.000000e+01
142 6.000000e+01 8.000000e+01
143 8.000000e+01 8.000000e+01
144 9.000000e+01 8.000000e+01
145 1.100000e+02 8.000000e+01
146 1.300000e+02 8.000000e+01
147 1.400000e+02 8.000000e+01
148 1.500000e+02 8.000000e+01
149 1.700000e+02 8.000000e+01
150 1.800000e+02 8.000000e+01
151 1.900000e+02 8.000000e+01
152 2.000000e+02 8.000000e+01
153 2.100000e+02 8.000000e+01
154 2.200000e+02 8.000000e+01
155 0.000000e+00 9.000000e+01
156 1.000000e+01 9.000000e+01
157 2.000000e+01 9.000000e+01
158 3.000000e+01 9.000000e+01
159 4.000000e+01 9.000000e+01
160 5.000000e+01 9.000000e+01
161 6.000000e+01 9.000000e+01
162 9.000000e+01 9.000000e+01
163 1.300000e+02 9.000000e+01
164 1.500000e+02 9.000000e+01
165 1.600000e+02 9.000000e+01
166 1.700000e+02 9.000000e+01
167 1.800000e+02 9.000000e+01
168 1.900000e+02 9.000000e+01
169 2.000000e+02 9.000000e+01
170 2.100000e+02 9.000000e+01
171 1.000000e+01 1.000000e+02
172 2.000000e+01 1.000000e+02
173 4.000000e+01 1.000000e+02
174 5.000000e+01 1.000000e+02
175 6.000000e+01 1.000000e+02
176 7.000000e+01 1.000000e+02
177 8.000000e+01 1.000000e+02
178 9.000000e+01 1.000000e+02
179 1.100000e+02 1.000000e+02
180 1.300000e+02 1.000000e+02
181 1.400000e+02 1.000000e+02
182 1.500000e+02 1.000000e+02
183 1.600000e+02 1.000000e+02
184 1.700000e+02 1.000000e+02
185 1.800000e+02 1.000000e+02
186 2.000000e+02 1.000000e+02
187 2.200000e+02 1.000000e+02
188 0.000000e+00 1.100000e+02
189 1.000000e+01 1.100000e+02
190 2.000000e+01 1.100000e+02
191 3.000000e+01 1.100000e+02
192 4.000000e+01 1.100000e+02
193 5.000000e+01 1.100000e+02
194 6.000000e+01 1.100000e+02
195 7.000000e+01 1.100000e+02
196 8.000000e+01 1.100000e+02
197 9.000000e+01 1.100000e+02
198 1.000000e+02 1.100000e+02
199 1.100000e+02 1.100000e+02
200 1.200000e+02 1.100000e+02
201 1.300000e+02 1.100000e+02
202 1.400000e+02 1.100000e+02
203 1.500000e+02 1.100000e+02
204 1.700000e+02 1.100000e+02
205 1.800000e+02 1.100000e+02
206 1.900000e+02 1.100000e+02
207 2.000000e+02 1.100000e+02
208 2.100000e+02 1.100000e+02
209 2.200000e+02 1.100000e+02
210 0.000000e+00 1.200000e+02
211 2.000000e+01 1.200000e+02
212 3.000000e+01 1.200000e+02
213 5.000000e+01 1.200000e+02
214 7.000000e+01 1.200000e+02
215 8.000000e+01 1.200000e+02
216 9.000000e+01 1.200000e+02
217 1.000000e+02 1.200000e+02
218 1.100000e+02 1.200000e+02
219 1.300000e+02 1.200000e+02
220 1.400000e+02 1.200000e+02
221 1.500000e+02 1.200000e+02
222 1.600000e+02 1.200000e+02
223 1.700000e+02 1.200000e+02
224 1.800000e+02 1.200000e+02
225 2.000000e+02 1.200000e+02
226 0.000000e+00 1.300000e+02
227 1.000000e+01 1.300000e+02
228 2.000000e+01 1.300000e+02
229 3.000000e+01 1.300000e+02
230 4.000000e+01 1.300000e+02
231 6.000000e+01 1.300000e+02
232 8.000000e+01 1.300000e+02
233 9.000000e+01 1.300000e+02
234 1.000000e+02 1.300000e+02
235 1.100000e+02 1.300000e+02
236 1.200000e+02 1.300000e+02
237 1.300000e+02 1.300000e+02
238 1.400000e+02 1.300000e+02
239 1.500000e+02 1.300000e+02
240 1.600000e+02 1.300000e+02
241 1.700000e+02 1.300000e+02
242 2.000000e+02 1.300000e+02
243 2.200000e+02 1.300000e+02
244 0.000000e+00 1.400000e+02
245 1.000000e+01 1.400000e+02
246 2.000000e+01 1.400000e+02
247 3.000000e+01 1.400000e+02
248 6.000000e+01 1.400000e+02
249 7.000000e+01 1.400000e+02
250 8.000000e+01 1.400000e+02
251 9.000000e+01 1.400000e+02
252 1.000000e+02 1.400000e+02
253 1.100000e+02 1.400000e+02
254 1.200000e+02 1.400000e+02
255 1.300000e+02 1.400000e+02
256 1.400000e+02 1.400000e+02
257 1.500000e+02 1.400000e+02
258 1.800000e+02 1.400000e+02
259 1.900000e+02 1.400000e+02
260 2.000000e+02 1.400000e+02
261 2.100000e+02 1.400000e+02
262 2.200000e+02 1.400000e+02
263 0.000000e+00 1.500000e+02
264 1.000000e+01 1.500000e+02
265 2.000000e+01 1.500000e+02
266 3.000000e+01 1.500000e+02
267 4.000000e+01 1.500000e+02
268 8.000000e+01 1.500000e+02
269 1.100000e+02 1.500000e+02
270 1.200000e+02 1.500000e+02
271 1.300000e+02 1.500000e+02
272 1.500000e+02 1.500000e+02
273 1.700000e+02 1.500000e+02
274 1.800000e+02 1.500000e+02
275 1.900000e+02 1.500000e+02
276 2.000000e+02 1.500000e+02
277 2.100000e+02 1.500000e+02
278 0.000000e+00 1.600000e+02
279 2.000000e+01 1.600000e+02
280 3.000000e+01 1.600000e+02
281 5.000000e+01 1.600000e+02
282 7.000000e+01 1.600000e+02
283 8.000000e+01 1.600000e+02
284 9.000000e+01 1.600000e+02
285 1.000000e+02 1.600000e+02
286 1.600000e+02 1.600000e+02
287 1.800000e+02 1.600000e+02
288 2.000000e+02 1.600000e+02
289 2.100000e+02 1.600000e+02
290 2.200000e+02 1.600000e+02
291 0.000000e+00 1.700000e+02
292 3.000000e+01 1.700000e+02
293 4.000000e+01 1.700000e+02
294 5.000000e+01 1.700000e+02
295 6.000000e+01 1.700000e+02
296 7.000000e+01 1.700000e+02
297 8.000000e+01 1.700000e+02
298 9.000000e+01 1.700000e+02
299 1.100000e+02 1.700000e+02
300 1.200000e+02 1.700000e+02
301 1.400000e+02 1.700000e+02
302 1.700000e+02 1.700000e+02
303 1.900000e+02 1.700000e+02
304 2.000000e+02 1.700000e+02
305 2.100000e+02 1.700000e+02
306 2.200000e+02 1.700000e+02
307 0.000000e+00 1.800000e+02
308 1.000000e+01 1.800000e+02
309 2.000000e+01 1.800000e+02
310 3.000000e+01 1.800000e+02
311 5.000000e+01 1.800000e+02
312 6.000000e+01 1.800000e+02
313 7.000000e+01 1.800000e+02
314 9.000000e+01 1.800000e+02
315 1.000000e+02 1.800000e+02
316 1.200000e+02 1.800000e+02
317 1.300000e+02 1.800000e+02
318 1.600000e+02 1.800000e+02
319 1.700000e+02 1.800000e+02
320 1.900000e+02 1.800000e+02
321 2.000000e+02 1.800000e+02
322 2.100000e+02 1.800000e+02
323 0.000000e+00 1.900000e+02
324 1.000000e+01 1.900000e+02
325 2.000000e+01 1.900000e+02
326 3.000000e+01 1.900000e+02
327 4.000000e+01 1.900000e+02
328 5.000000e+01 1.900000e+02
329 6.000000e+01 1.900000e+02
330 7.000000e+01 1.900000e+02
331 8.000000e+01 1.900000e+02
332 9.000000e+01 1.900000e+02
333 1.000000e+02 1.900000e+02
334 1.100000e+02 1.900000e+02
335 1.300000e+02 1.900000e+02
336 1.400000e+02 1.900000e+02
337 1.600000e+02 1.900000e+02
338 1.700000e+02 1.900000e+02
339 1.800000e+02 1.900000e+02
340 1.900000e+02 1.900000e+02
341 2.000000e+02 1.900000e+02
342 2.100000e+02 1.900000e+02
343 2.200000e+02 1.900000e+02
344 0.000000e+00 2.000000e+02
345 1.000000e+01 2.000000e+02
346 2.000000e+01 2.000000e+02
347 4.000000e+01 2.000000e+02
348 6.000000e+01 2.000000e+02
349 7.000000e+01 2.000000e+02
350 8.000000e+01 2.000000e+02
351 9.000000e+01 2.000000e+02
352 1.000000e+02 2.000000e+02
353 1.100000e+02 2.000000e+02
354 1.200000e+02 2.000000e+02
355 1.400000e+02 2.000000e+02
356 1.500000e+02 2.000000e+02
357 1.600000e+02 2.000000e+02
358 1.700000e+02 2.000000e+02
359 1.800000e+02 2.000000e+02
360 2.000000e+02 2.000000e+02
361 2.100000e+02 2.000000e+02
362 0.000000e+00 2.100000e+02
363 1.000000e+01 2.100000e+02
364 2.000000e+01 2.100000e+02
365 3.000000e+01 2.100000e+02
366 4.000000e+01 2.100000e+02
367 6.000000e+01 2.100000e+02
368 7.000000e+01 2.100000e+02
369 8.000000e+01 2.100000e+02
370 9.000000e+01 2.100000e+02
371 1.000000e+02 2.100000e+02
372 1.100000e+02 2.100000e+02
373 1.200000e+02 2.100000e+02
374 1.300000e+02 2.100000e+02
375 1.400000e+02 2.100000e+02
376 1.500000e+02 2.100000e+02
377 1.600000e+02 2.100000e+02
378 1.700000e+02 2.100000e+02
379 1.800000e+02 2.100000e+02
380 1.900000e+02 2.100000e+02
381 2.000000e+02 2.100000e+02
382 2.100000e+02 2.100000e+02
383 2.200000e+02 2.100000e+02
384 0.000000e+00 2.200000e+02
385 1.000000e+01 2.200000e+02
386 2.000000e+01 2.200000e+02
387 4.000000e+01 2.200000e+02
388 6.000000e+01 2.200000e+02
389 7.000000e+01 2.200000e+02
390 8.000000e+01 2.200000e+02
391 9.000000e+01 2.200000e+02
392 1.300000e+02 2.200000e+02
393 1.500000e+02 2.200000e+02
394 1.600000e+02 2.200000e+02
395 1.700000e+02 2.200000e+02
396 1.800000e+02 2.200000e+02
397 1.900000e+02 2.200000e+02
398 2.000000e+02 2.200000e+02
399 2.100000e+02 2.200000e+02
400 2.200000e+02 2.200000e+02
EOF
